nNurses = 97;
nHours = 36;
minHours = 8;
maxHours = 10;
maxConsec = 8;
maxPresence = 35;
demand = [22, 18, 20, 18, 16, 11, 13, 14, 18, 23, 19, 16, 19, 15, 12, 10, 7, 12, 7, 8, 11, 9, 5, 10, 8, 12, 13, 12, 7, 11, 8, 7, 10, 13, 13, 9];
